(declare-const |idx_in'| Int)
(declare-const |c'| Int)
(declare-const i Int)
(declare-const term_to_project_onto1 Real)
(declare-const |i'| Int)
(declare-const tr Int)
(declare-const c Int)
(declare-const term_to_project_onto Real)
(declare-const term_to_project_onto0 Real)
(declare-const idx_in Int)
(assert (and (<= (- idx_in) 0) (<= (+ (- c) 48) 0) (<= (+ c -57) 0)
               (= (+ |idx_in'| (- idx_in) -1) 0)
               (= (+ (* -10 i) |i'| (- c) 48) 0) (= (+ (- tr) |c'|) 0)
               (= term_to_project_onto1 (+ |c'| (- c)))
               (= term_to_project_onto0 (+ |i'| (- i)))
               (= term_to_project_onto (+ |idx_in'| (- idx_in)))))
(check-sat)
